
Gurobi 11.0.1 (win64) logging started Wed May 15 12:31:27 2024

Set parameter LogFile to value "output/solver_log25.txt"
Gurobi Optimizer version 11.0.1 build v11.0.1rc0 (win64 - Windows 11.0 (22631.2))

CPU model: 11th Gen Intel(R) Core(TM) i7-1165G7 @ 2.80GHz, instruction set [SSE2|AVX|AVX2|AVX512]
Thread count: 4 physical cores, 8 logical processors, using up to 8 threads

Optimize a model with 2262 rows, 457 columns and 41899 nonzeros
Model fingerprint: 0x97750cce
Variable types: 248 continuous, 209 integer (209 binary)
Coefficient statistics:
  Matrix range     [4e-01, 1e+05]
  Objective range  [1e+00, 1e+02]
  Bounds range     [1e+00, 1e+00]
  RHS range        [1e-02, 1e+05]

User MIP start produced solution with objective 76506.9 (0.01s)
User MIP start produced solution with objective 76506.9 (0.01s)
Loaded user MIP start with objective 76506.9

Presolve removed 118 rows and 117 columns
Presolve time: 0.04s
Presolved: 2144 rows, 340 columns, 40993 nonzeros
Variable types: 228 continuous, 112 integer (109 binary)

Root relaxation: objective 7.666447e+04, 621 iterations, 0.04 seconds (0.08 work units)

    Nodes    |    Current Node    |     Objective Bounds      |     Work
 Expl Unexpl |  Obj  Depth IntInf | Incumbent    BestBd   Gap | It/Node Time

     0     0 76664.4733    0    3 76506.9031 76664.4733  0.21%     -    0s
H    0     0                    76664.473331 76664.4733  0.00%     -    0s
     0     0 76664.4733    0    3 76664.4733 76664.4733  0.00%     -    0s

Explored 1 nodes (689 simplex iterations) in 0.18 seconds (0.31 work units)
Thread count was 8 (of 8 available processors)

Solution count 3: 76664.5 76664.5 76506.9 

Optimal solution found (tolerance 1.00e-04)
Best objective 7.666447333123e+04, best bound 7.666447333123e+04, gap 0.0000%
